c *********************************
c * Circuit generated by BenCGen
c *
c * Parity_248
c *
c * Ports with 1 gate(s): 1
c * Ports with 2 gate(s): 248
c * Total gates: 249
c *********************************
p cnf 497 993
1 251 0
-1 -251 0
1 -250 0
251 -250 0
-1 -251 250 0
1 2 -252 0
-1 2 252 0
1 -2 252 0
-1 -2 -252 0
3 4 -253 0
-3 4 253 0
3 -4 253 0
-3 -4 -253 0
5 6 -254 0
-5 6 254 0
5 -6 254 0
-5 -6 -254 0
7 8 -255 0
-7 8 255 0
7 -8 255 0
-7 -8 -255 0
9 10 -256 0
-9 10 256 0
9 -10 256 0
-9 -10 -256 0
11 12 -257 0
-11 12 257 0
11 -12 257 0
-11 -12 -257 0
13 14 -258 0
-13 14 258 0
13 -14 258 0
-13 -14 -258 0
15 16 -259 0
-15 16 259 0
15 -16 259 0
-15 -16 -259 0
17 18 -260 0
-17 18 260 0
17 -18 260 0
-17 -18 -260 0
19 20 -261 0
-19 20 261 0
19 -20 261 0
-19 -20 -261 0
21 22 -262 0
-21 22 262 0
21 -22 262 0
-21 -22 -262 0
23 24 -263 0
-23 24 263 0
23 -24 263 0
-23 -24 -263 0
25 26 -264 0
-25 26 264 0
25 -26 264 0
-25 -26 -264 0
27 28 -265 0
-27 28 265 0
27 -28 265 0
-27 -28 -265 0
29 30 -266 0
-29 30 266 0
29 -30 266 0
-29 -30 -266 0
31 32 -267 0
-31 32 267 0
31 -32 267 0
-31 -32 -267 0
33 34 -268 0
-33 34 268 0
33 -34 268 0
-33 -34 -268 0
35 36 -269 0
-35 36 269 0
35 -36 269 0
-35 -36 -269 0
37 38 -270 0
-37 38 270 0
37 -38 270 0
-37 -38 -270 0
39 40 -271 0
-39 40 271 0
39 -40 271 0
-39 -40 -271 0
41 42 -272 0
-41 42 272 0
41 -42 272 0
-41 -42 -272 0
43 44 -273 0
-43 44 273 0
43 -44 273 0
-43 -44 -273 0
45 46 -274 0
-45 46 274 0
45 -46 274 0
-45 -46 -274 0
47 48 -275 0
-47 48 275 0
47 -48 275 0
-47 -48 -275 0
49 50 -276 0
-49 50 276 0
49 -50 276 0
-49 -50 -276 0
51 52 -277 0
-51 52 277 0
51 -52 277 0
-51 -52 -277 0
53 54 -278 0
-53 54 278 0
53 -54 278 0
-53 -54 -278 0
55 56 -279 0
-55 56 279 0
55 -56 279 0
-55 -56 -279 0
57 58 -280 0
-57 58 280 0
57 -58 280 0
-57 -58 -280 0
59 60 -281 0
-59 60 281 0
59 -60 281 0
-59 -60 -281 0
61 62 -282 0
-61 62 282 0
61 -62 282 0
-61 -62 -282 0
63 64 -283 0
-63 64 283 0
63 -64 283 0
-63 -64 -283 0
65 66 -284 0
-65 66 284 0
65 -66 284 0
-65 -66 -284 0
67 68 -285 0
-67 68 285 0
67 -68 285 0
-67 -68 -285 0
69 70 -286 0
-69 70 286 0
69 -70 286 0
-69 -70 -286 0
71 72 -287 0
-71 72 287 0
71 -72 287 0
-71 -72 -287 0
73 74 -288 0
-73 74 288 0
73 -74 288 0
-73 -74 -288 0
75 76 -289 0
-75 76 289 0
75 -76 289 0
-75 -76 -289 0
77 78 -290 0
-77 78 290 0
77 -78 290 0
-77 -78 -290 0
79 80 -291 0
-79 80 291 0
79 -80 291 0
-79 -80 -291 0
81 82 -292 0
-81 82 292 0
81 -82 292 0
-81 -82 -292 0
83 84 -293 0
-83 84 293 0
83 -84 293 0
-83 -84 -293 0
85 86 -294 0
-85 86 294 0
85 -86 294 0
-85 -86 -294 0
87 88 -295 0
-87 88 295 0
87 -88 295 0
-87 -88 -295 0
89 90 -296 0
-89 90 296 0
89 -90 296 0
-89 -90 -296 0
91 92 -297 0
-91 92 297 0
91 -92 297 0
-91 -92 -297 0
93 94 -298 0
-93 94 298 0
93 -94 298 0
-93 -94 -298 0
95 96 -299 0
-95 96 299 0
95 -96 299 0
-95 -96 -299 0
97 98 -300 0
-97 98 300 0
97 -98 300 0
-97 -98 -300 0
99 100 -301 0
-99 100 301 0
99 -100 301 0
-99 -100 -301 0
101 102 -302 0
-101 102 302 0
101 -102 302 0
-101 -102 -302 0
103 104 -303 0
-103 104 303 0
103 -104 303 0
-103 -104 -303 0
105 106 -304 0
-105 106 304 0
105 -106 304 0
-105 -106 -304 0
107 108 -305 0
-107 108 305 0
107 -108 305 0
-107 -108 -305 0
109 110 -306 0
-109 110 306 0
109 -110 306 0
-109 -110 -306 0
111 112 -307 0
-111 112 307 0
111 -112 307 0
-111 -112 -307 0
113 114 -308 0
-113 114 308 0
113 -114 308 0
-113 -114 -308 0
115 116 -309 0
-115 116 309 0
115 -116 309 0
-115 -116 -309 0
117 118 -310 0
-117 118 310 0
117 -118 310 0
-117 -118 -310 0
119 120 -311 0
-119 120 311 0
119 -120 311 0
-119 -120 -311 0
121 122 -312 0
-121 122 312 0
121 -122 312 0
-121 -122 -312 0
123 124 -313 0
-123 124 313 0
123 -124 313 0
-123 -124 -313 0
125 126 -314 0
-125 126 314 0
125 -126 314 0
-125 -126 -314 0
127 128 -315 0
-127 128 315 0
127 -128 315 0
-127 -128 -315 0
129 130 -316 0
-129 130 316 0
129 -130 316 0
-129 -130 -316 0
131 132 -317 0
-131 132 317 0
131 -132 317 0
-131 -132 -317 0
133 134 -318 0
-133 134 318 0
133 -134 318 0
-133 -134 -318 0
135 136 -319 0
-135 136 319 0
135 -136 319 0
-135 -136 -319 0
137 138 -320 0
-137 138 320 0
137 -138 320 0
-137 -138 -320 0
139 140 -321 0
-139 140 321 0
139 -140 321 0
-139 -140 -321 0
141 142 -322 0
-141 142 322 0
141 -142 322 0
-141 -142 -322 0
143 144 -323 0
-143 144 323 0
143 -144 323 0
-143 -144 -323 0
145 146 -324 0
-145 146 324 0
145 -146 324 0
-145 -146 -324 0
147 148 -325 0
-147 148 325 0
147 -148 325 0
-147 -148 -325 0
149 150 -326 0
-149 150 326 0
149 -150 326 0
-149 -150 -326 0
151 152 -327 0
-151 152 327 0
151 -152 327 0
-151 -152 -327 0
153 154 -328 0
-153 154 328 0
153 -154 328 0
-153 -154 -328 0
155 156 -329 0
-155 156 329 0
155 -156 329 0
-155 -156 -329 0
157 158 -330 0
-157 158 330 0
157 -158 330 0
-157 -158 -330 0
159 160 -331 0
-159 160 331 0
159 -160 331 0
-159 -160 -331 0
161 162 -332 0
-161 162 332 0
161 -162 332 0
-161 -162 -332 0
163 164 -333 0
-163 164 333 0
163 -164 333 0
-163 -164 -333 0
165 166 -334 0
-165 166 334 0
165 -166 334 0
-165 -166 -334 0
167 168 -335 0
-167 168 335 0
167 -168 335 0
-167 -168 -335 0
169 170 -336 0
-169 170 336 0
169 -170 336 0
-169 -170 -336 0
171 172 -337 0
-171 172 337 0
171 -172 337 0
-171 -172 -337 0
173 174 -338 0
-173 174 338 0
173 -174 338 0
-173 -174 -338 0
175 176 -339 0
-175 176 339 0
175 -176 339 0
-175 -176 -339 0
177 178 -340 0
-177 178 340 0
177 -178 340 0
-177 -178 -340 0
179 180 -341 0
-179 180 341 0
179 -180 341 0
-179 -180 -341 0
181 182 -342 0
-181 182 342 0
181 -182 342 0
-181 -182 -342 0
183 184 -343 0
-183 184 343 0
183 -184 343 0
-183 -184 -343 0
185 186 -344 0
-185 186 344 0
185 -186 344 0
-185 -186 -344 0
187 188 -345 0
-187 188 345 0
187 -188 345 0
-187 -188 -345 0
189 190 -346 0
-189 190 346 0
189 -190 346 0
-189 -190 -346 0
191 192 -347 0
-191 192 347 0
191 -192 347 0
-191 -192 -347 0
193 194 -348 0
-193 194 348 0
193 -194 348 0
-193 -194 -348 0
195 196 -349 0
-195 196 349 0
195 -196 349 0
-195 -196 -349 0
197 198 -350 0
-197 198 350 0
197 -198 350 0
-197 -198 -350 0
199 200 -351 0
-199 200 351 0
199 -200 351 0
-199 -200 -351 0
201 202 -352 0
-201 202 352 0
201 -202 352 0
-201 -202 -352 0
203 204 -353 0
-203 204 353 0
203 -204 353 0
-203 -204 -353 0
205 206 -354 0
-205 206 354 0
205 -206 354 0
-205 -206 -354 0
207 208 -355 0
-207 208 355 0
207 -208 355 0
-207 -208 -355 0
209 210 -356 0
-209 210 356 0
209 -210 356 0
-209 -210 -356 0
211 212 -357 0
-211 212 357 0
211 -212 357 0
-211 -212 -357 0
213 214 -358 0
-213 214 358 0
213 -214 358 0
-213 -214 -358 0
215 216 -359 0
-215 216 359 0
215 -216 359 0
-215 -216 -359 0
217 218 -360 0
-217 218 360 0
217 -218 360 0
-217 -218 -360 0
219 220 -361 0
-219 220 361 0
219 -220 361 0
-219 -220 -361 0
221 222 -362 0
-221 222 362 0
221 -222 362 0
-221 -222 -362 0
223 224 -363 0
-223 224 363 0
223 -224 363 0
-223 -224 -363 0
225 226 -364 0
-225 226 364 0
225 -226 364 0
-225 -226 -364 0
227 228 -365 0
-227 228 365 0
227 -228 365 0
-227 -228 -365 0
229 230 -366 0
-229 230 366 0
229 -230 366 0
-229 -230 -366 0
231 232 -367 0
-231 232 367 0
231 -232 367 0
-231 -232 -367 0
233 234 -368 0
-233 234 368 0
233 -234 368 0
-233 -234 -368 0
235 236 -369 0
-235 236 369 0
235 -236 369 0
-235 -236 -369 0
237 238 -370 0
-237 238 370 0
237 -238 370 0
-237 -238 -370 0
239 240 -371 0
-239 240 371 0
239 -240 371 0
-239 -240 -371 0
241 242 -372 0
-241 242 372 0
241 -242 372 0
-241 -242 -372 0
243 244 -373 0
-243 244 373 0
243 -244 373 0
-243 -244 -373 0
245 246 -374 0
-245 246 374 0
245 -246 374 0
-245 -246 -374 0
247 248 -375 0
-247 248 375 0
247 -248 375 0
-247 -248 -375 0
252 253 -376 0
-252 253 376 0
252 -253 376 0
-252 -253 -376 0
254 255 -377 0
-254 255 377 0
254 -255 377 0
-254 -255 -377 0
256 257 -378 0
-256 257 378 0
256 -257 378 0
-256 -257 -378 0
258 259 -379 0
-258 259 379 0
258 -259 379 0
-258 -259 -379 0
260 261 -380 0
-260 261 380 0
260 -261 380 0
-260 -261 -380 0
262 263 -381 0
-262 263 381 0
262 -263 381 0
-262 -263 -381 0
264 265 -382 0
-264 265 382 0
264 -265 382 0
-264 -265 -382 0
266 267 -383 0
-266 267 383 0
266 -267 383 0
-266 -267 -383 0
268 269 -384 0
-268 269 384 0
268 -269 384 0
-268 -269 -384 0
270 271 -385 0
-270 271 385 0
270 -271 385 0
-270 -271 -385 0
272 273 -386 0
-272 273 386 0
272 -273 386 0
-272 -273 -386 0
274 275 -387 0
-274 275 387 0
274 -275 387 0
-274 -275 -387 0
276 277 -388 0
-276 277 388 0
276 -277 388 0
-276 -277 -388 0
278 279 -389 0
-278 279 389 0
278 -279 389 0
-278 -279 -389 0
280 281 -390 0
-280 281 390 0
280 -281 390 0
-280 -281 -390 0
282 283 -391 0
-282 283 391 0
282 -283 391 0
-282 -283 -391 0
284 285 -392 0
-284 285 392 0
284 -285 392 0
-284 -285 -392 0
286 287 -393 0
-286 287 393 0
286 -287 393 0
-286 -287 -393 0
288 289 -394 0
-288 289 394 0
288 -289 394 0
-288 -289 -394 0
290 291 -395 0
-290 291 395 0
290 -291 395 0
-290 -291 -395 0
292 293 -396 0
-292 293 396 0
292 -293 396 0
-292 -293 -396 0
294 295 -397 0
-294 295 397 0
294 -295 397 0
-294 -295 -397 0
296 297 -398 0
-296 297 398 0
296 -297 398 0
-296 -297 -398 0
298 299 -399 0
-298 299 399 0
298 -299 399 0
-298 -299 -399 0
300 301 -400 0
-300 301 400 0
300 -301 400 0
-300 -301 -400 0
302 303 -401 0
-302 303 401 0
302 -303 401 0
-302 -303 -401 0
304 305 -402 0
-304 305 402 0
304 -305 402 0
-304 -305 -402 0
306 307 -403 0
-306 307 403 0
306 -307 403 0
-306 -307 -403 0
308 309 -404 0
-308 309 404 0
308 -309 404 0
-308 -309 -404 0
310 311 -405 0
-310 311 405 0
310 -311 405 0
-310 -311 -405 0
312 313 -406 0
-312 313 406 0
312 -313 406 0
-312 -313 -406 0
314 315 -407 0
-314 315 407 0
314 -315 407 0
-314 -315 -407 0
316 317 -408 0
-316 317 408 0
316 -317 408 0
-316 -317 -408 0
318 319 -409 0
-318 319 409 0
318 -319 409 0
-318 -319 -409 0
320 321 -410 0
-320 321 410 0
320 -321 410 0
-320 -321 -410 0
322 323 -411 0
-322 323 411 0
322 -323 411 0
-322 -323 -411 0
324 325 -412 0
-324 325 412 0
324 -325 412 0
-324 -325 -412 0
326 327 -413 0
-326 327 413 0
326 -327 413 0
-326 -327 -413 0
328 329 -414 0
-328 329 414 0
328 -329 414 0
-328 -329 -414 0
330 331 -415 0
-330 331 415 0
330 -331 415 0
-330 -331 -415 0
332 333 -416 0
-332 333 416 0
332 -333 416 0
-332 -333 -416 0
334 335 -417 0
-334 335 417 0
334 -335 417 0
-334 -335 -417 0
336 337 -418 0
-336 337 418 0
336 -337 418 0
-336 -337 -418 0
338 339 -419 0
-338 339 419 0
338 -339 419 0
-338 -339 -419 0
340 341 -420 0
-340 341 420 0
340 -341 420 0
-340 -341 -420 0
342 343 -421 0
-342 343 421 0
342 -343 421 0
-342 -343 -421 0
344 345 -422 0
-344 345 422 0
344 -345 422 0
-344 -345 -422 0
346 347 -423 0
-346 347 423 0
346 -347 423 0
-346 -347 -423 0
348 349 -424 0
-348 349 424 0
348 -349 424 0
-348 -349 -424 0
350 351 -425 0
-350 351 425 0
350 -351 425 0
-350 -351 -425 0
352 353 -426 0
-352 353 426 0
352 -353 426 0
-352 -353 -426 0
354 355 -427 0
-354 355 427 0
354 -355 427 0
-354 -355 -427 0
356 357 -428 0
-356 357 428 0
356 -357 428 0
-356 -357 -428 0
358 359 -429 0
-358 359 429 0
358 -359 429 0
-358 -359 -429 0
360 361 -430 0
-360 361 430 0
360 -361 430 0
-360 -361 -430 0
362 363 -431 0
-362 363 431 0
362 -363 431 0
-362 -363 -431 0
364 365 -432 0
-364 365 432 0
364 -365 432 0
-364 -365 -432 0
366 367 -433 0
-366 367 433 0
366 -367 433 0
-366 -367 -433 0
368 369 -434 0
-368 369 434 0
368 -369 434 0
-368 -369 -434 0
370 371 -435 0
-370 371 435 0
370 -371 435 0
-370 -371 -435 0
372 373 -436 0
-372 373 436 0
372 -373 436 0
-372 -373 -436 0
374 375 -437 0
-374 375 437 0
374 -375 437 0
-374 -375 -437 0
376 377 -438 0
-376 377 438 0
376 -377 438 0
-376 -377 -438 0
378 379 -439 0
-378 379 439 0
378 -379 439 0
-378 -379 -439 0
380 381 -440 0
-380 381 440 0
380 -381 440 0
-380 -381 -440 0
382 383 -441 0
-382 383 441 0
382 -383 441 0
-382 -383 -441 0
384 385 -442 0
-384 385 442 0
384 -385 442 0
-384 -385 -442 0
386 387 -443 0
-386 387 443 0
386 -387 443 0
-386 -387 -443 0
388 389 -444 0
-388 389 444 0
388 -389 444 0
-388 -389 -444 0
390 391 -445 0
-390 391 445 0
390 -391 445 0
-390 -391 -445 0
392 393 -446 0
-392 393 446 0
392 -393 446 0
-392 -393 -446 0
394 395 -447 0
-394 395 447 0
394 -395 447 0
-394 -395 -447 0
396 397 -448 0
-396 397 448 0
396 -397 448 0
-396 -397 -448 0
398 399 -449 0
-398 399 449 0
398 -399 449 0
-398 -399 -449 0
400 401 -450 0
-400 401 450 0
400 -401 450 0
-400 -401 -450 0
402 403 -451 0
-402 403 451 0
402 -403 451 0
-402 -403 -451 0
404 405 -452 0
-404 405 452 0
404 -405 452 0
-404 -405 -452 0
406 407 -453 0
-406 407 453 0
406 -407 453 0
-406 -407 -453 0
408 409 -454 0
-408 409 454 0
408 -409 454 0
-408 -409 -454 0
410 411 -455 0
-410 411 455 0
410 -411 455 0
-410 -411 -455 0
412 413 -456 0
-412 413 456 0
412 -413 456 0
-412 -413 -456 0
414 415 -457 0
-414 415 457 0
414 -415 457 0
-414 -415 -457 0
416 417 -458 0
-416 417 458 0
416 -417 458 0
-416 -417 -458 0
418 419 -459 0
-418 419 459 0
418 -419 459 0
-418 -419 -459 0
420 421 -460 0
-420 421 460 0
420 -421 460 0
-420 -421 -460 0
422 423 -461 0
-422 423 461 0
422 -423 461 0
-422 -423 -461 0
424 425 -462 0
-424 425 462 0
424 -425 462 0
-424 -425 -462 0
426 427 -463 0
-426 427 463 0
426 -427 463 0
-426 -427 -463 0
428 429 -464 0
-428 429 464 0
428 -429 464 0
-428 -429 -464 0
430 431 -465 0
-430 431 465 0
430 -431 465 0
-430 -431 -465 0
432 433 -466 0
-432 433 466 0
432 -433 466 0
-432 -433 -466 0
434 435 -467 0
-434 435 467 0
434 -435 467 0
-434 -435 -467 0
436 437 -468 0
-436 437 468 0
436 -437 468 0
-436 -437 -468 0
438 439 -469 0
-438 439 469 0
438 -439 469 0
-438 -439 -469 0
440 441 -470 0
-440 441 470 0
440 -441 470 0
-440 -441 -470 0
442 443 -471 0
-442 443 471 0
442 -443 471 0
-442 -443 -471 0
444 445 -472 0
-444 445 472 0
444 -445 472 0
-444 -445 -472 0
446 447 -473 0
-446 447 473 0
446 -447 473 0
-446 -447 -473 0
448 449 -474 0
-448 449 474 0
448 -449 474 0
-448 -449 -474 0
450 451 -475 0
-450 451 475 0
450 -451 475 0
-450 -451 -475 0
452 453 -476 0
-452 453 476 0
452 -453 476 0
-452 -453 -476 0
454 455 -477 0
-454 455 477 0
454 -455 477 0
-454 -455 -477 0
456 457 -478 0
-456 457 478 0
456 -457 478 0
-456 -457 -478 0
458 459 -479 0
-458 459 479 0
458 -459 479 0
-458 -459 -479 0
460 461 -480 0
-460 461 480 0
460 -461 480 0
-460 -461 -480 0
462 463 -481 0
-462 463 481 0
462 -463 481 0
-462 -463 -481 0
464 465 -482 0
-464 465 482 0
464 -465 482 0
-464 -465 -482 0
466 467 -483 0
-466 467 483 0
466 -467 483 0
-466 -467 -483 0
469 470 -484 0
-469 470 484 0
469 -470 484 0
-469 -470 -484 0
471 472 -485 0
-471 472 485 0
471 -472 485 0
-471 -472 -485 0
473 474 -486 0
-473 474 486 0
473 -474 486 0
-473 -474 -486 0
475 476 -487 0
-475 476 487 0
475 -476 487 0
-475 -476 -487 0
477 478 -488 0
-477 478 488 0
477 -478 488 0
-477 -478 -488 0
479 480 -489 0
-479 480 489 0
479 -480 489 0
-479 -480 -489 0
481 482 -490 0
-481 482 490 0
481 -482 490 0
-481 -482 -490 0
483 468 -491 0
-483 468 491 0
483 -468 491 0
-483 -468 -491 0
484 485 -492 0
-484 485 492 0
484 -485 492 0
-484 -485 -492 0
486 487 -493 0
-486 487 493 0
486 -487 493 0
-486 -487 -493 0
488 489 -494 0
-488 489 494 0
488 -489 494 0
-488 -489 -494 0
490 491 -495 0
-490 491 495 0
490 -491 495 0
-490 -491 -495 0
492 493 -496 0
-492 493 496 0
492 -493 496 0
-492 -493 -496 0
494 495 -497 0
-494 495 497 0
494 -495 497 0
-494 -495 -497 0
496 497 -249 0
-496 497 249 0
496 -497 249 0
-496 -497 -249 0
